 H 
 1.0000000000000000
    10.0000000000000000    0.0000000000000000    0.0000000000000000
     0.0000000000000000   10.0000000000000000    0.0000000000000000
     0.0000000000000000    0.0000000000000000   10.0000000000000000
 H  
   3
Cartesian
  8.8379999999999992  6.3940000000000001  8.9840000000000000
  8.8499999999999996  5.9489999999999998  8.3960000000000008
  9.0000000000000000  0.0000000000000000  9.0000000000000000
